<?xml version = "1.0" encoding="UTF-8" standalone="yes"?>
<CPLEXSolution version="1.2">
 <header
   problemName="inst_0_cut_n6"
   objectiveValue="401.68686868686871"
   solutionTypeValue="1"
   solutionTypeString="basic"
   solutionStatusValue="1"
   solutionStatusString="optimal"
   solutionMethodString="primal"
   primalFeasible="1"
   dualFeasible="1"
   simplexIterations="0"
   writeLevel="1"/>
 <quality
   epRHS="9.9999999999999995e-07"
   epOpt="9.9999999999999995e-07"
   maxPrimalInfeas="0"
   maxDualInfeas="0"
   maxPrimalResidual="4.6185277824406512e-14"
   maxDualResidual="1.4210854715202004e-14"
   maxX="1"
   maxPi="0.94949494949494961"
   maxSlack="822.98989898989896"
   maxRedCost="80.25252525252526"
   kappa="8587.8953192649333"/>
 <linearConstraints>
  <constraint name="c0" index="0" status="LL" slack="0" dual="0.94949494949494961"/>
  <constraint name="c1" index="1" status="BS" slack="709.74747474747471" dual="-0"/>
  <constraint name="c2" index="2" status="BS" slack="822.98989898989896" dual="-0"/>
  <constraint name="c3" index="3" status="BS" slack="392.18181818181819" dual="-0"/>
  <constraint name="c4" index="4" status="BS" slack="671.57575757575762" dual="-0"/>
  <constraint name="c5" index="5" status="BS" slack="66.272727272727266" dual="-0"/>
  <constraint name="c6" index="6" status="BS" slack="106.6969696969697" dual="-0"/>
  <constraint name="c7" index="7" status="BS" slack="543.33333333333337" dual="-0"/>
  <constraint name="cut_1" index="8" status="BS" slack="1.7373737373737375" dual="-0"/>
  <constraint name="cut_2" index="9" status="BS" slack="1.2525252525252206" dual="-0"/>
  <constraint name="cut_3" index="10" status="BS" slack="2.0101010101010655" dual="-0"/>
  <constraint name="cut_4" index="11" status="BS" slack="0.81818181818181834" dual="-0"/>
  <constraint name="cut_5" index="12" status="BS" slack="1.4242424242424556" dual="-0"/>
  <constraint name="cut_6" index="13" status="BS" slack="1.7272727272727337" dual="-0"/>
 </linearConstraints>
 <variables>
  <variable name="x0" index="0" status="LL" value="0" reducedCost="-13.979797979797986"/>
  <variable name="x1" index="1" status="UL" value="1" reducedCost="8.3636363636363598"/>
  <variable name="x2" index="2" status="LL" value="0" reducedCost="-26.777777777777786"/>
  <variable name="x3" index="3" status="UL" value="1" reducedCost="55.212121212121211"/>
  <variable name="x4" index="4" status="LL" value="0" reducedCost="-80.25252525252526"/>
  <variable name="x5" index="5" status="UL" value="1" reducedCost="27.73737373737373"/>
  <variable name="x6" index="6" status="UL" value="1" reducedCost="28.434343434343432"/>
  <variable name="x7" index="7" status="UL" value="1" reducedCost="24.626262626262623"/>
  <variable name="x8" index="8" status="BS" value="0.26262626262626265" reducedCost="0"/>
  <variable name="x9" index="9" status="LL" value="0" reducedCost="-21.010101010101025"/>
  <variable name="x10" index="10" status="LL" value="0" reducedCost="-36.464646464646478"/>
  <variable name="s0" index="11" status="LL" value="0" reducedCost="-0.94949494949494961"/>
  <variable name="s1" index="12" status="LL" value="0" reducedCost="0"/>
  <variable name="s2" index="13" status="LL" value="0" reducedCost="0"/>
  <variable name="s3" index="14" status="LL" value="0" reducedCost="0"/>
  <variable name="s4" index="15" status="LL" value="0" reducedCost="0"/>
  <variable name="s5" index="16" status="LL" value="0" reducedCost="0"/>
  <variable name="s6" index="17" status="LL" value="0" reducedCost="0"/>
  <variable name="s7" index="18" status="LL" value="0" reducedCost="0"/>
 </variables>
 <objectiveValues>
  <objective index="0" name="" value="401.68686868686871"/>
 </objectiveValues>
</CPLEXSolution>
